c File: data_files/evolved_graphs/g3272.col
c
c Auto generated graph
c
p edge 100 422
e 1 34
e 1 35
e 1 36
e 1 37
e 1 38
e 1 39
e 1 40
e 1 41
e 1 42
e 1 43
e 1 44
e 1 45
e 1 46
e 1 47
e 1 48
e 1 49
e 1 50
e 1 51
e 1 52
e 1 53
e 1 54
e 1 55
e 1 56
e 1 57
e 1 58
e 1 59
e 1 60
e 1 61
e 1 62
e 1 63
e 1 64
e 1 65
e 1 66
e 1 67
e 1 68
e 1 69
e 1 70
e 1 71
e 1 72
e 1 73
e 1 74
e 1 75
e 1 76
e 1 77
e 1 78
e 1 79
e 1 80
e 1 81
e 1 82
e 1 83
e 1 84
e 1 85
e 1 86
e 1 87
e 1 88
e 1 89
e 1 90
e 1 91
e 1 92
e 1 93
e 1 94
e 1 95
e 1 96
e 1 97
e 1 98
e 1 99
e 1 100
e 2 34
e 2 35
e 2 36
e 2 37
e 2 38
e 2 39
e 2 40
e 2 41
e 2 42
e 2 43
e 2 44
e 2 45
e 2 46
e 2 47
e 2 48
e 2 49
e 2 50
e 2 51
e 2 52
e 2 53
e 2 54
e 2 55
e 2 56
e 2 57
e 2 58
e 2 59
e 2 60
e 2 61
e 2 62
e 2 63
e 2 64
e 2 65
e 2 66
e 2 67
e 2 68
e 2 69
e 2 70
e 2 71
e 2 72
e 2 73
e 2 74
e 2 75
e 2 76
e 2 77
e 2 78
e 2 79
e 2 80
e 2 81
e 2 82
e 2 83
e 2 84
e 2 85
e 2 86
e 2 87
e 2 88
e 2 89
e 2 90
e 2 91
e 2 92
e 2 93
e 2 94
e 2 95
e 2 96
e 2 97
e 2 98
e 2 99
e 2 100
e 3 34
e 3 35
e 3 36
e 3 37
e 3 38
e 3 39
e 3 40
e 3 41
e 3 42
e 3 43
e 3 44
e 3 45
e 3 46
e 3 47
e 3 48
e 3 49
e 3 50
e 3 51
e 3 52
e 3 53
e 3 54
e 3 55
e 3 56
e 3 57
e 3 58
e 3 59
e 3 60
e 3 61
e 3 62
e 3 63
e 3 64
e 3 65
e 3 66
e 3 67
e 3 68
e 3 69
e 3 70
e 3 71
e 3 72
e 3 73
e 3 74
e 3 75
e 3 76
e 3 77
e 3 78
e 3 79
e 3 80
e 3 81
e 3 82
e 3 83
e 3 84
e 3 85
e 3 86
e 3 87
e 3 88
e 3 89
e 3 90
e 3 91
e 3 92
e 3 93
e 3 94
e 3 95
e 3 96
e 3 97
e 3 98
e 3 99
e 3 100
e 4 34
e 4 35
e 4 36
e 4 37
e 4 38
e 4 39
e 4 40
e 4 41
e 4 42
e 4 43
e 4 44
e 4 45
e 4 46
e 4 47
e 4 48
e 4 49
e 4 50
e 4 51
e 4 52
e 4 53
e 4 54
e 4 55
e 4 56
e 4 57
e 4 58
e 4 59
e 4 60
e 4 61
e 4 62
e 4 63
e 4 64
e 4 65
e 4 66
e 4 67
e 4 69
e 4 70
e 4 71
e 4 72
e 4 73
e 4 74
e 4 75
e 4 76
e 4 77
e 4 78
e 4 79
e 4 80
e 4 81
e 4 82
e 4 83
e 4 84
e 4 85
e 4 86
e 4 87
e 4 88
e 4 89
e 4 90
e 4 91
e 4 92
e 4 93
e 4 94
e 4 95
e 4 96
e 4 97
e 4 98
e 4 99
e 4 100
e 5 25
e 5 26
e 5 27
e 5 28
e 5 29
e 5 30
e 5 31
e 5 32
e 5 33
e 5 100
e 6 24
e 6 25
e 6 26
e 6 27
e 6 28
e 6 29
e 6 30
e 6 31
e 6 32
e 6 33
e 6 100
e 7 25
e 7 26
e 7 27
e 7 28
e 7 29
e 7 30
e 7 31
e 7 32
e 7 33
e 7 56
e 7 100
e 8 24
e 8 25
e 8 26
e 8 27
e 8 28
e 8 29
e 8 30
e 8 31
e 8 32
e 8 33
e 8 58
e 8 100
e 9 24
e 9 25
e 9 26
e 9 27
e 9 28
e 9 29
e 9 30
e 9 31
e 9 32
e 9 33
e 9 57
e 9 100
e 10 25
e 10 26
e 10 27
e 10 28
e 10 29
e 10 30
e 10 31
e 10 32
e 10 33
e 10 52
e 10 100
e 11 25
e 11 26
e 11 27
e 11 28
e 11 29
e 11 30
e 11 31
e 11 32
e 11 33
e 11 44
e 11 100
e 12 25
e 12 26
e 12 27
e 12 28
e 12 29
e 12 30
e 12 31
e 12 32
e 12 33
e 12 63
e 12 100
e 13 25
e 13 26
e 13 27
e 13 28
e 13 29
e 13 30
e 13 31
e 13 32
e 13 33
e 13 100
e 14 25
e 14 26
e 14 27
e 14 28
e 14 29
e 14 30
e 14 31
e 14 32
e 14 33
e 14 100
e 15 25
e 15 26
e 15 27
e 15 28
e 15 29
e 15 30
e 15 31
e 15 32
e 15 33
e 15 100
e 16 31
e 16 32
e 16 33
e 16 37
e 16 100
e 17 31
e 17 32
e 17 33
e 18 31
e 19 31
e 20 31
e 20 82
e 21 31
e 22 52
e 23 63
e 24 25
e 24 26
e 24 27
e 24 28
e 24 29
e 24 30
e 24 31
e 24 57
e 24 59
e 24 60
e 24 61
e 24 62
e 24 63
e 24 64
e 24 65
e 24 66
e 24 67
e 24 100
e 26 45
e 31 67
e 48 100
